RST05
Position Depot: Random
Horizon for Depot: Small
Position of customers: Random
Distribution of the demand: Medium
Width of time windows: Tight
Distribution of the service: Small

VEHICLE 
NUMBER 	 CAPACITY 
 5 	 	 353 
 
CUSTOMER
CUST NO. 	 XCOORD.  	 YCOORD. 	 DEMAND 	 READY TIME 	 DUE DATE 	 SERVICE TIME 
 0 	 	 672 	 	 46 	 	 0 	 	 0 	 	 1604 	 	 0 
  1 	 	 23 	 	 2 	 	 2 	 	 688 	 	 788 	 	 76 
  2 	 	 997 	 	 893 	 	 8 	 	 1219 	 	 1303 	 	 95 
  3 	 	 196 	 	 708 	 	 1 	 	 707 	 	 896 	 	 88 
  4 	 	 550 	 	 375 	 	 8 	 	 527 	 	 664 	 	 95 
  5 	 	 973 	 	 18 	 	 78 	 	 235 	 	 332 	 	 50 
  6 	 	 63 	 	 578 	 	 1 	 	 1054 	 	 1172 	 	 65 
  7 	 	 172 	 	 752 	 	 1 	 	 768 	 	 956 	 	 52 
  8 	 	 522 	 	 317 	 	 10 	 	 1071 	 	 1169 	 	 51 
  9 	 	 731 	 	 399 	 	 2 	 	 1277 	 	 1459 	 	 53 
  10 	 	 699 	 	 823 	 	 10 	 	 981 	 	 1139 	 	 73 
  11 	 	 601 	 	 21 	 	 8 	 	 0 	 	 82 	 	 92 
  12 	 	 388 	 	 595 	 	 74 	 	 547 	 	 679 	 	 51 
  13 	 	 637 	 	 916 	 	 5 	 	 795 	 	 957 	 	 59 
  14 	 	 6 	 	 570 	 	 92 	 	 908 	 	 980 	 	 60 
  15 	 	 388 	 	 794 	 	 9 	 	 898 	 	 1023 	 	 65 
  16 	 	 350 	 	 174 	 	 10 	 	 271 	 	 381 	 	 71 
  17 	 	 68 	 	 867 	 	 5 	 	 974 	 	 1121 	 	 77 
  18 	 	 232 	 	 799 	 	 8 	 	 824 	 	 959 	 	 97 
  19 	 	 857 	 	 384 	 	 10 	 	 946 	 	 1046 	 	 98 
  20 	 	 82 	 	 131 	 	 98 	 	 1023 	 	 1167 	 	 50 
  21 	 	 178 	 	 210 	 	 2 	 	 1329 	 	 1436 	 	 52 
  22 	 	 852 	 	 448 	 	 9 	 	 553 	 	 654 	 	 51 
  23 	 	 212 	 	 966 	 	 73 	 	 954 	 	 1131 	 	 86 
  24 	 	 726 	 	 352 	 	 1 	 	 187 	 	 341 	 	 76 
  25 	 	 747 	 	 24 	 	 7 	 	 92 	 	 280 	 	 85 
  26 	 	 477 	 	 444 	 	 4 	 	 1421 	 	 1488 	 	 66 
  27 	 	 96 	 	 684 	 	 3 	 	 861 	 	 945 	 	 95 
  28 	 	 226 	 	 859 	 	 9 	 	 897 	 	 1020 	 	 95 
  29 	 	 830 	 	 210 	 	 10 	 	 1321 	 	 1480 	 	 93 
  30 	 	 611 	 	 914 	 	 61 	 	 827 	 	 957 	 	 50 
  31 	 	 377 	 	 404 	 	 1 	 	 1442 	 	 1555 	 	 61 
  32 	 	 803 	 	 178 	 	 69 	 	 1031 	 	 1113 	 	 95 
  33 	 	 525 	 	 378 	 	 8 	 	 1380 	 	 1519 	 	 80 
  34 	 	 640 	 	 733 	 	 5 	 	 626 	 	 756 	 	 81 
  35 	 	 21 	 	 706 	 	 7 	 	 1444 	 	 1532 	 	 77 
  36 	 	 558 	 	 652 	 	 3 	 	 497 	 	 678 	 	 96 
  37 	 	 603 	 	 523 	 	 4 	 	 466 	 	 530 	 	 56 
  38 	 	 128 	 	 111 	 	 9 	 	 788 	 	 903 	 	 53 
  39 	 	 691 	 	 743 	 	 3 	 	 1222 	 	 1366 	 	 70 
  40 	 	 516 	 	 692 	 	 8 	 	 1468 	 	 1604 	 	 59 
  41 	 	 662 	 	 698 	 	 2 	 	 1284 	 	 1427 	 	 87 
  42 	 	 297 	 	 482 	 	 4 	 	 1538 	 	 1604 	 	 92 
  43 	 	 635 	 	 610 	 	 8 	 	 502 	 	 624 	 	 87 
  44 	 	 658 	 	 633 	 	 2 	 	 502 	 	 645 	 	 69 
  45 	 	 157 	 	 738 	 	 5 	 	 1096 	 	 1247 	 	 77 
  46 	 	 352 	 	 458 	 	 3 	 	 1357 	 	 1506 	 	 62 
  47 	 	 460 	 	 59 	 	 5 	 	 500 	 	 560 	 	 92 
  48 	 	 584 	 	 776 	 	 8 	 	 621 	 	 808 	 	 95 
  49 	 	 236 	 	 259 	 	 85 	 	 1448 	 	 1584 	 	 52 
  50 	 	 904 	 	 993 	 	 81 	 	 984 	 	 1072 	 	 59 
  51 	 	 897 	 	 34 	 	 5 	 	 1452 	 	 1579 	 	 99 
  52 	 	 6 	 	 533 	 	 10 	 	 1197 	 	 1302 	 	 93 
  53 	 	 849 	 	 412 	 	 57 	 	 1429 	 	 1570 	 	 94 
  54 	 	 437 	 	 520 	 	 2 	 	 1352 	 	 1427 	 	 88 
  55 	 	 457 	 	 627 	 	 99 	 	 499 	 	 681 	 	 51 
  56 	 	 523 	 	 832 	 	 56 	 	 828 	 	 879 	 	 61 
  57 	 	 499 	 	 820 	 	 10 	 	 904 	 	 1032 	 	 77 
  58 	 	 972 	 	 715 	 	 1 	 	 1076 	 	 1229 	 	 73 
  59 	 	 503 	 	 262 	 	 9 	 	 1473 	 	 1604 	 	 72 
  60 	 	 179 	 	 710 	 	 2 	 	 767 	 	 909 	 	 67 
  61 	 	 476 	 	 828 	 	 6 	 	 725 	 	 886 	 	 60 
  62 	 	 96 	 	 175 	 	 8 	 	 567 	 	 649 	 	 51 
  63 	 	 672 	 	 337 	 	 5 	 	 216 	 	 320 	 	 85 
  64 	 	 617 	 	 60 	 	 6 	 	 499 	 	 554 	 	 71 
  65 	 	 687 	 	 802 	 	 6 	 	 633 	 	 831 	 	 73 
  66 	 	 281 	 	 515 	 	 6 	 	 561 	 	 671 	 	 54 
  67 	 	 305 	 	 568 	 	 8 	 	 928 	 	 1068 	 	 62 
  68 	 	 576 	 	 430 	 	 10 	 	 1392 	 	 1486 	 	 65 
  69 	 	 465 	 	 845 	 	 10 	 	 1355 	 	 1454 	 	 91 
  70 	 	 610 	 	 370 	 	 9 	 	 264 	 	 362 	 	 86 
  71 	 	 690 	 	 748 	 	 1 	 	 702 	 	 772 	 	 51 
  72 	 	 722 	 	 562 	 	 10 	 	 631 	 	 816 	 	 50 
  73 	 	 731 	 	 987 	 	 50 	 	 1510 	 	 1578 	 	 67 
  74 	 	 182 	 	 549 	 	 4 	 	 622 	 	 772 	 	 82 
  75 	 	 318 	 	 707 	 	 52 	 	 757 	 	 913 	 	 61 
  76 	 	 476 	 	 841 	 	 5 	 	 1391 	 	 1474 	 	 51 
  77 	 	 258 	 	 961 	 	 8 	 	 943 	 	 1104 	 	 75 
  78 	 	 268 	 	 100 	 	 6 	 	 393 	 	 448 	 	 61 
  79 	 	 581 	 	 78 	 	 5 	 	 715 	 	 794 	 	 55 
  80 	 	 881 	 	 320 	 	 62 	 	 333 	 	 473 	 	 82 
  81 	 	 15 	 	 393 	 	 67 	 	 917 	 	 1004 	 	 95 
  82 	 	 39 	 	 616 	 	 8 	 	 747 	 	 936 	 	 62 
  83 	 	 117 	 	 522 	 	 8 	 	 708 	 	 804 	 	 80 
  84 	 	 231 	 	 120 	 	 9 	 	 627 	 	 728 	 	 69 
  85 	 	 440 	 	 853 	 	 3 	 	 1024 	 	 1189 	 	 95 
  86 	 	 917 	 	 879 	 	 1 	 	 898 	 	 955 	 	 96 
  87 	 	 214 	 	 171 	 	 8 	 	 1210 	 	 1392 	 	 63 
  88 	 	 736 	 	 746 	 	 5 	 	 816 	 	 1007 	 	 99 
  89 	 	 189 	 	 530 	 	 5 	 	 659 	 	 752 	 	 82 
  90 	 	 542 	 	 803 	 	 51 	 	 988 	 	 1137 	 	 66 
  91 	 	 797 	 	 25 	 	 9 	 	 1483 	 	 1604 	 	 89 
  92 	 	 429 	 	 576 	 	 72 	 	 456 	 	 641 	 	 92 
  93 	 	 378 	 	 434 	 	 8 	 	 1246 	 	 1384 	 	 79 
  94 	 	 763 	 	 356 	 	 2 	 	 1314 	 	 1374 	 	 71 
  95 	 	 654 	 	 802 	 	 3 	 	 725 	 	 831 	 	 95 
  96 	 	 130 	 	 157 	 	 10 	 	 876 	 	 932 	 	 92 
  97 	 	 212 	 	 437 	 	 2 	 	 1201 	 	 1276 	 	 66 
  98 	 	 831 	 	 833 	 	 8 	 	 726 	 	 883 	 	 74 
  99 	 	 434 	 	 882 	 	 8 	 	 1213 	 	 1360 	 	 86 
  100 	 	 788 	 	 713 	 	 10 	 	 1288 	 	 1369 	 	 72 
 